%mem=64GB
%nprocshared=32
#p freq rb3lyp/genecp scrf=check guess=tcheck geom=(connectivity,allcheck)
genchk

Title Card Required

0 1
 Ti                -0.89946700   -0.86985500   -0.08926200
 O                  0.24256700   -0.69092200    1.38758000
 N                 -2.29008500   -0.53146000    1.60159100
 C                 -3.50952000   -0.12806700    1.55406100
 C                 -4.26587700    0.06286000    0.34118300
 C                 -3.71404500   -0.24283600   -0.93532900
 C                 -5.58782700    0.54182800    0.42854300
 C                 -5.81563400    0.41707700   -1.96111600
 O                 -2.48955600   -0.70041500   -1.07739900
 Cl                -1.13188000   -3.19077200    0.22316400
 O                  0.37342400   -0.94372100   -1.39303600
 C                  1.70550300   -0.75097300   -1.70034200
 C                  2.52224300   -0.95700200   -0.43263800
 C                  3.73572600   -1.75055100   -0.32309000
 C                  4.02416700   -2.41757000    0.98834500
 C                  4.41913700   -2.29244400   -1.54174100
 C                 -0.04445200    2.09529500   -0.03691800
 C                  1.96868200    2.99392900    0.02264000
 N                  1.25971100    1.82539400   -0.11115500
 Br                 4.04531600    0.47819600   -0.14339200
 O                  3.19967800    3.09065200    0.02192800
 O                 -0.98116800    1.25100900   -0.10170000
 C                  1.03693800    4.21212100    0.18596000
 C                 -0.35770400    3.58202400    0.14517100
 H                 -4.03808300    0.08641700    2.49094100
 H                 -5.99434100    0.76781300    1.41201800
 H                 -6.41571700    0.55327900   -2.85700200
 H                  2.01662900   -1.47432800   -2.46955000
 H                  1.87455200    0.26032900   -2.08335300
 H                  1.92101400   -0.83267800    0.47135000
 H                  3.58154000   -1.87772700    1.82765500
 H                  5.09729400   -2.54897700    1.15154900
 H                  3.56212300   -3.41539800    0.95108100
 H                  5.47968100   -2.47569700   -1.35134100
 H                  4.31480500   -1.64171200   -2.41113200
 H                  3.95083300   -3.25899200   -1.78046400
 H                  1.26680900    4.72171100    1.12678500
 H                  1.22610900    4.92537700   -0.62223100
 H                 -0.98049900    3.92860300   -0.68583700
 H                 -0.93939500    3.72580100    1.06179100
 C                 -4.51866900   -0.06024700   -2.07819200
 H                 -4.08732700   -0.30315100   -3.04352700
 C                 -6.36307100    0.72460200   -0.70452300
 H                 -7.37952900    1.09599200   -0.62309100
 C                 -0.17569000   -0.18642500    2.62438200
 H                  0.50276200   -0.51729600    3.42287100
 H                 -0.17091000    0.91464000    2.60687100
 C                 -1.59841300   -0.70097800    2.86963400
 H                 -2.10374400   -0.18288800    3.69650700
 H                 -1.55632600   -1.77427300    3.08859700

 1 2 1.0 9 1.0 10 1.0 11 1.0
 2 45 1.0
 3 4 2.0 48 1.0
 4 5 1.5 25 1.0
 5 6 1.5 7 1.5
 6 9 1.5 41 1.5
 7 26 1.0 43 2.0
 8 27 1.0 41 1.5 43 1.5
 9
 10
 11 12 1.0
 12 13 1.0 28 1.0 29 1.0
 13 14 1.0 30 1.0 20 1.0
 14 15 1.0 16 1.0 20 1.0
 15 31 1.0 32 1.0 33 1.0
 16 34 1.0 35 1.0 36 1.0
 17 19 1.5 22 2.0 24 1.0
 18 19 1.5 21 2.0 23 1.0
 19
 20
 21
 22
 23 24 1.0 37 1.0 38 1.0
 24 39 1.0 40 1.0
 25
 26
 27
 28
 29
 30
 31
 32
 33
 34
 35
 36
 37
 38
 39
 40
 41 42 1.0
 42
 43 44 1.0
 44
 45 46 1.0 47 1.0 48 1.0
 46
 47
 48 49 1.0 50 1.0
 49
 50

